93456 100 1100 168 156 144 37 97 92 27 98 162 16 168 91 95 169 172 101 142 148 108 178 169 100 160 37 155 19 54 67 35 111 33 27 58 129 142 114 51 52 91 123 85 71 102 160 146 154 125 43 94 34 156 166 25 96 171 104 127 110 118 17 62 66 69 114 177 20 160 176 100 56 110 36 73 125 166 30 88 130 140 163 177 134 64 80 99 163 66 91 80 103 168 42 151 31 134 149 58 135 28 97 64 63 65 69 61 66 66 61 68 60 66 69 68 61 60 62 61 63 63 67 68 64 69 62 61 60 62 69 63 61 60 61 65 67 60 65 63 61 69 67 60 66 63 66 61 67 62 68 64 64 64 64 61 67 67 61 63 61 65 63 68 62 65 66 62 60 68 65 63 60 60 61 67 62 62 64 60 63 62 61 65 60 68 66 69 62 68 63 66 66 60 63 65 69 63 69 67 60 61 63
